p cnf 81 265
3 -1 0
3 -2 0
1 2 -3 0
-6 4 0
-6 5 0
-4 -5 6 0
6 7 -8 0
-6 -7 -8 0
6 -7 8 0
-6 7 8 0
-3 -8 -9 0
3 8 -9 0
-3 8 9 0
3 -8 9 0
-11 7 0
-11 -10 0
-7 10 11 0
11 -12 -13 0
-11 12 -13 0
11 12 13 0
-11 -12 13 0
2 -14 -15 0
-2 14 -15 0
2 14 15 0
-2 -14 15 0
15 -7 -16 0
-15 7 -16 0
15 7 16 0
-15 -7 16 0
17 -13 0
17 16 0
13 -16 -17 0
-5 17 -18 0
5 -17 -18 0
-5 -17 18 0
5 17 18 0
18 10 -19 0
-18 -10 -19 0
18 -10 19 0
-18 10 19 0
19 6 -20 0
-19 -6 -20 0
19 -6 20 0
-19 6 20 0
-23 21 0
-23 22 0
-21 -22 23 0
24 23 0
24 11 0
-23 -11 -24 0
25 -24 0
25 2 0
24 -2 -25 0
26 -25 0
26 11 0
25 -11 -26 0
-28 12 0
-28 27 0
-12 -27 28 0
-29 26 0
-29 28 0
-26 -28 29 0
-30 -20 0
-30 -29 0
20 29 30 0
-9 -30 -31 0
9 30 -31 0
-9 30 31 0
9 -30 31 0
-25 -19 -32 0
25 19 -32 0
-25 19 32 0
25 -19 32 0
-4 -15 -33 0
4 15 -33 0
-4 15 33 0
4 -15 33 0
-34 33 0
-34 15 0
-33 -15 34 0
5 34 -35 0
-5 -34 -35 0
5 -34 35 0
-5 34 35 0
-36 24 0
-36 -13 0
-24 13 36 0
-37 -36 0
-37 -6 0
36 6 37 0
38 35 0
38 -37 0
-35 37 -38 0
39 -32 0
39 -38 0
32 38 -39 0
40 -31 0
40 -39 0
31 39 -40 0
41 10 0
41 -14 0
-10 14 -41 0
24 10 -42 0
-24 -10 -42 0
24 -10 42 0
-24 10 42 0
43 24 0
43 13 0
-24 -13 -43 0
-44 43 0
-44 -34 0
-43 34 44 0
-42 44 -45 0
42 -44 -45 0
-42 -44 45 0
42 44 45 0
46 41 0
46 -45 0
-41 45 -46 0
-47 -12 -48 0
47 12 -48 0
-47 12 48 0
47 -12 48 0
49 46 0
49 48 0
-46 -48 -49 0
50 -12 0
50 -21 0
12 21 -50 0
-51 -50 0
-51 -15 0
50 15 51 0
-53 14 0
-53 52 0
-14 -52 53 0
-54 53 0
-54 -1 0
-53 1 54 0
-55 51 0
-55 54 0
-51 -54 55 0
57 -56 0
57 52 0
56 -52 -57 0
58 14 0
58 -2 0
-14 2 -58 0
59 4 0
59 -58 0
-4 58 -59 0
-60 -15 0
-60 -53 0
15 53 60 0
60 -1 -61 0
-60 1 -61 0
60 1 61 0
-60 -1 61 0
62 61 0
62 -33 0
-61 33 -62 0
-63 -59 0
-63 62 0
59 -62 63 0
57 63 -64 0
-57 -63 -64 0
57 -63 64 0
-57 63 64 0
65 36 0
65 -6 0
-36 6 -65 0
66 -33 0
66 24 0
33 -24 -66 0
67 -66 0
67 -10 0
66 10 -67 0
68 -47 0
68 -67 0
47 67 -68 0
69 -65 0
69 -68 0
65 68 -69 0
-70 64 0
-70 -69 0
-64 69 70 0
71 55 0
71 70 0
-55 -70 -71 0
-72 52 0
-72 -62 0
-52 62 72 0
-73 43 0
-73 72 0
-43 -72 73 0
73 -61 -74 0
-73 61 -74 0
73 61 74 0
-73 -61 74 0
-75 -7 0
-75 -27 0
7 27 75 0
-76 74 0
-76 75 0
-74 -75 76 0
-71 -76 -77 0
71 76 -77 0
-71 76 77 0
71 -76 77 0
-78 -17 0
-78 16 0
17 -16 78 0
79 77 0
79 -78 0
-77 78 -79 0
80 49 0
80 79 0
-49 -79 -80 0
81 -40 0
81 -80 0
40 80 -81 0
-27 75 0
-71 -19 44 73 31 0
-77 39 43 -33 0
-29 -31 0
71 -21 -11 -25 15 -5 0
5 -14 40 -20 -58 -3 0
16 55 -68 0
-49 -26 21 73 0
37 -45 -19 47 0
-12 -17 26 0
-38 -59 -4 33 49 0
-47 -75 17 0
-1 64 57 52 73 0
25 -29 -51 0
32 -54 28 -13 -14 0
51 50 69 0
-57 -15 34 -35 59 0
-16 72 -22 0
3 78 0
65 3 0
32 -60 0
39 -30 -66 74 0
-6 74 -29 78 0
-56 35 0
36 -23 3 0
80 -79 -59 -61 71 0
-37 -36 0
29 55 80 -53 -11 0
43 65 78 62 34 79 0
-2 68 -74 0
-68 -46 12 39 0
62 20 5 -3 -64 0
41 70 0
-44 21 0
51 -77 -81 52 54 17 0
-77 72 0
-15 58 0
-10 -61 -72 60 52 -22 0
-51 74 -11 -6 24 16 0
-79 13 -1 30 72 0
-24 1 0
-9 80 49 -32 70 0
35 -43 -58 -68 -20 64 0
59 -67 0
81 0
